
Gurobi 7.5.2 (mac64, Python) logging started Thu Dec 21 11:39:40 2017

Academic license - for non-commercial use only
Optimize a model with 39 rows, 46 columns and 96 nonzeros
Variable types: 0 continuous, 46 integer (46 binary)
Coefficient statistics:
  Matrix range     [1e+00, 3e+00]
  Objective range  [1e+00, 1e+00]
  Bounds range     [1e+00, 1e+00]
  RHS range        [1e+00, 1e+00]
Found heuristic solution: objective 14.0000000
Presolve removed 39 rows and 46 columns
Presolve time: 0.00s
Presolve: All rows and columns removed

Explored 0 nodes (0 simplex iterations) in 0.02 seconds
Thread count was 1 (of 4 available processors)

Solution count 2: 9 14 

Optimal solution found (tolerance 1.00e-04)
Best objective 9.000000000000e+00, best bound 9.000000000000e+00, gap 0.0000%
Optimize a model with 72 rows, 69 columns and 178 nonzeros
Variable types: 0 continuous, 69 integer (69 binary)
Coefficient statistics:
  Matrix range     [1e+00, 3e+00]
  Objective range  [1e+00, 1e+00]
  Bounds range     [1e+00, 1e+00]
  RHS range        [1e+00, 1e+00]
Found heuristic solution: objective 21.0000000
Presolve removed 72 rows and 69 columns
Presolve time: 0.00s
Presolve: All rows and columns removed

Explored 0 nodes (0 simplex iterations) in 0.02 seconds
Thread count was 1 (of 4 available processors)

Solution count 2: 13 21 

Optimal solution found (tolerance 1.00e-04)
Best objective 1.300000000000e+01, best bound 1.300000000000e+01, gap 0.0000%
Optimize a model with 2307 rows, 1599 columns and 11049 nonzeros
Variable types: 0 continuous, 1599 integer (1599 binary)
Coefficient statistics:
  Matrix range     [1e+00, 1e+01]
  Objective range  [1e+00, 1e+00]
  Bounds range     [1e+00, 1e+00]
  RHS range        [1e+00, 1e+00]
Found heuristic solution: objective 268.0000000
Presolve removed 618 rows and 34 columns
Presolve time: 0.17s
Presolved: 1689 rows, 1565 columns, 12123 nonzeros
Variable types: 0 continuous, 1565 integer (1565 binary)

Root relaxation: objective 1.105225e+02, 2761 iterations, 0.24 seconds

    Nodes    |    Current Node    |     Objective Bounds      |     Work
 Expl Unexpl |  Obj  Depth IntInf | Incumbent    BestBd   Gap | It/Node Time

     0     0  110.52249    0  725  268.00000  110.52249  58.8%     -    0s
H    0     0                     246.0000000  110.52249  55.1%     -    0s
H    0     0                     230.0000000  110.52249  51.9%     -    0s
H    0     0                     227.0000000  110.52249  51.3%     -    0s
     0     0  149.45651    0  695  227.00000  149.45651  34.2%     -    1s
H    0     0                     222.0000000  149.45651  32.7%     -    1s
H    0     0                     219.0000000  149.45651  31.8%     -    1s
H    0     0                     212.0000000  149.45651  29.5%     -    1s
     0     0  157.19340    0  713  212.00000  157.19340  25.9%     -    2s
     0     0  158.86574    0  743  212.00000  158.86574  25.1%     -    2s
     0     0  159.29364    0  753  212.00000  159.29364  24.9%     -    2s
     0     0  159.38170    0  757  212.00000  159.38170  24.8%     -    2s
     0     0  159.41249    0  787  212.00000  159.41249  24.8%     -    2s
     0     0  159.41484    0  784  212.00000  159.41484  24.8%     -    2s
     0     0  166.61222    0  814  212.00000  166.61222  21.4%     -    3s
H    0     0                     204.0000000  166.61222  18.3%     -    3s
H    0     0                     199.0000000  166.61222  16.3%     -    3s
     0     0  168.18877    0  826  199.00000  168.18877  15.5%     -    4s
     0     0  168.24485    0  797  199.00000  168.24485  15.5%     -    4s
     0     0  168.27775    0  816  199.00000  168.27775  15.4%     -    4s
     0     0  168.28313    0  816  199.00000  168.28313  15.4%     -    4s
     0     0  169.15625    0  831  199.00000  169.15625  15.0%     -    4s
H    0     0                     193.0000000  169.15625  12.4%     -    4s
     0     0  169.26279    0  834  193.00000  169.26279  12.3%     -    4s
     0     0  169.35116    0  852  193.00000  169.35116  12.3%     -    4s
     0     0  169.37000    0  840  193.00000  169.37000  12.2%     -    5s
     0     0  169.83170    0  882  193.00000  169.83170  12.0%     -    5s
H    0     0                     192.0000000  169.83170  11.5%     -    5s
H    0     0                     180.0000000  169.83170  5.65%     -    5s
     0     0  169.93221    0  880  180.00000  169.93221  5.59%     -    5s
     0     0  169.94936    0  883  180.00000  169.94936  5.58%     -    5s
     0     0  169.97182    0  860  180.00000  169.97182  5.57%     -    5s
     0     0  169.97182    0  855  180.00000  169.97182  5.57%     -    5s
H    0     0                     179.0000000  169.97182  5.04%     -    5s
H    0     0                     171.0000000  169.97182  0.60%     -    5s
H    0     0                     170.0000000  169.97182  0.02%     -    5s
     0     0  169.97182    0  855  170.00000  169.97182  0.02%     -    5s

Cutting planes:
  Gomory: 2
  Cover: 57
  Implied bound: 3
  Clique: 393
  MIR: 2
  Zero half: 1

Explored 1 nodes (18613 simplex iterations) in 5.99 seconds
Thread count was 4 (of 4 available processors)

Solution count 10: 170 171 179 ... 219

Optimal solution found (tolerance 1.00e-04)
Best objective 1.700000000000e+02, best bound 1.700000000000e+02, gap 0.0000%
Optimize a model with 2619 rows, 1784 columns and 17624 nonzeros
Variable types: 0 continuous, 1784 integer (1784 binary)
Coefficient statistics:
  Matrix range     [1e+00, 3e+01]
  Objective range  [1e+00, 1e+00]
  Bounds range     [1e+00, 1e+00]
  RHS range        [1e+00, 1e+00]
Found heuristic solution: objective 294.0000000
Presolve removed 1253 rows and 381 columns
Presolve time: 0.20s
Presolved: 1366 rows, 1403 columns, 14481 nonzeros
Found heuristic solution: objective 272.0000000
Variable types: 0 continuous, 1403 integer (1403 binary)

Root relaxation: objective 1.731790e+02, 993 iterations, 0.07 seconds

    Nodes    |    Current Node    |     Objective Bounds      |     Work
 Expl Unexpl |  Obj  Depth IntInf | Incumbent    BestBd   Gap | It/Node Time

     0     0  173.17902    0  215  272.00000  173.17902  36.3%     -    0s
H    0     0                     238.0000000  173.17902  27.2%     -    0s
H    0     0                     230.0000000  173.17902  24.7%     -    0s
     0     0  184.09590    0  369  230.00000  184.09590  20.0%     -    0s
H    0     0                     227.0000000  184.09590  18.9%     -    0s
     0     0  188.74195    0  415  227.00000  188.74195  16.9%     -    0s
     0     0  190.32802    0  371  227.00000  190.32802  16.2%     -    0s
     0     0  190.55680    0  365  227.00000  190.55680  16.1%     -    0s
     0     0  190.59455    0  399  227.00000  190.59455  16.0%     -    0s
     0     0  190.60053    0  371  227.00000  190.60053  16.0%     -    0s
     0     0  197.62963    0  335  227.00000  197.62963  12.9%     -    0s
H    0     0                     223.0000000  197.62963  11.4%     -    1s
H    0     0                     219.0000000  197.62963  9.76%     -    1s
     0     0  198.63651    0  294  219.00000  198.63651  9.30%     -    1s
     0     0  198.83485    0   91  219.00000  198.83485  9.21%     -    1s
     0     0  198.88446    0  286  219.00000  198.88446  9.19%     -    1s
     0     0  198.93040    0   67  219.00000  198.93040  9.16%     -    1s
     0     0  198.94389    0  193  219.00000  198.94389  9.16%     -    1s
     0     0  198.95370    0  202  219.00000  198.95370  9.15%     -    1s
     0     0  198.99652    0  232  219.00000  198.99652  9.13%     -    1s
     0     0  199.56604    0   80  219.00000  199.56604  8.87%     -    1s
H    0     0                     207.0000000  199.56604  3.59%     -    1s
H    0     0                     200.0000000  199.56604  0.22%     -    1s

Cutting planes:
  Gomory: 3
  Cover: 44
  Implied bound: 3
  Clique: 212
  MIR: 7

Explored 1 nodes (6549 simplex iterations) in 1.35 seconds
Thread count was 4 (of 4 available processors)

Solution count 9: 200 207 219 ... 290

Optimal solution found (tolerance 1.00e-04)
Best objective 2.000000000000e+02, best bound 2.000000000000e+02, gap 0.0000%
Optimize a model with 71 rows, 46 columns and 128 nonzeros
Variable types: 0 continuous, 46 integer (46 binary)
Coefficient statistics:
  Matrix range     [1e+00, 3e+00]
  Objective range  [1e+00, 1e+00]
  Bounds range     [1e+00, 1e+00]
  RHS range        [1e+00, 1e+00]
Found heuristic solution: objective 9.0000000
Presolve removed 71 rows and 46 columns
Presolve time: 0.00s
Presolve: All rows and columns removed

Explored 0 nodes (0 simplex iterations) in 0.01 seconds
Thread count was 1 (of 4 available processors)

Solution count 1: 9 

Optimal solution found (tolerance 1.00e-04)
Best objective 9.000000000000e+00, best bound 9.000000000000e+00, gap 0.0000%
Optimize a model with 117 rows, 69 columns and 223 nonzeros
Variable types: 0 continuous, 69 integer (69 binary)
Coefficient statistics:
  Matrix range     [1e+00, 3e+00]
  Objective range  [1e+00, 1e+00]
  Bounds range     [1e+00, 1e+00]
  RHS range        [1e+00, 1e+00]
Found heuristic solution: objective 13.0000000
Presolve removed 117 rows and 69 columns
Presolve time: 0.00s
Presolve: All rows and columns removed

Explored 0 nodes (0 simplex iterations) in 0.02 seconds
Thread count was 1 (of 4 available processors)

Solution count 1: 13 

Optimal solution found (tolerance 1.00e-04)
Best objective 1.300000000000e+01, best bound 1.300000000000e+01, gap 0.0000%
Optimize a model with 2862 rows, 1599 columns and 11604 nonzeros
Variable types: 0 continuous, 1599 integer (1599 binary)
Coefficient statistics:
  Matrix range     [1e+00, 1e+01]
  Objective range  [1e+00, 1e+00]
  Bounds range     [1e+00, 1e+00]
  RHS range        [1e+00, 1e+00]
Found heuristic solution: objective 231.0000000
Presolve removed 2239 rows and 965 columns
Presolve time: 0.03s
Presolved: 623 rows, 634 columns, 3000 nonzeros
Variable types: 0 continuous, 634 integer (634 binary)

Root relaxation: objective 1.574503e+02, 653 iterations, 0.01 seconds

    Nodes    |    Current Node    |     Objective Bounds      |     Work
 Expl Unexpl |  Obj  Depth IntInf | Incumbent    BestBd   Gap | It/Node Time

     0     0  157.45026    0  216  231.00000  157.45026  31.8%     -    0s
H    0     0                     190.0000000  157.45026  17.1%     -    0s
H    0     0                     188.0000000  157.45026  16.2%     -    0s
H    0     0                     184.0000000  157.45026  14.4%     -    0s
     0     0  167.05397    0  263  184.00000  167.05397  9.21%     -    0s
     0     0  168.25397    0  180  184.00000  168.25397  8.56%     -    0s
     0     0  168.32321    0  225  184.00000  168.32321  8.52%     -    0s
     0     0  168.33445    0  243  184.00000  168.33445  8.51%     -    0s
     0     0  169.66667    0   51  184.00000  169.66667  7.79%     -    0s
H    0     0                     174.0000000  169.66667  2.49%     -    0s
H    0     0                     172.0000000  169.66667  1.36%     -    0s
     0     0  170.00000    0   12  172.00000  170.00000  1.16%     -    0s
     0     0  170.00000    0    6  172.00000  170.00000  1.16%     -    0s
     0     0  170.00000    0    4  172.00000  170.00000  1.16%     -    0s
H    0     0                     170.0000000  170.00000  0.00%     -    0s

Cutting planes:
  Gomory: 2
  Cover: 48
  Implied bound: 1
  Clique: 97
  MIR: 4

Explored 1 nodes (1916 simplex iterations) in 0.40 seconds
Thread count was 4 (of 4 available processors)

Solution count 7: 170 172 174 ... 231

Optimal solution found (tolerance 1.00e-04)
Best objective 1.700000000000e+02, best bound 1.700000000000e+02, gap 0.0000%
Optimize a model with 71 rows, 46 columns and 128 nonzeros
Variable types: 0 continuous, 46 integer (46 binary)
Coefficient statistics:
  Matrix range     [1e+00, 3e+00]
  Objective range  [1e+00, 1e+00]
  Bounds range     [1e+00, 1e+00]
  RHS range        [1e+00, 1e+00]
Found heuristic solution: objective 9.0000000
Presolve removed 71 rows and 46 columns
Presolve time: 0.00s
Presolve: All rows and columns removed

Explored 0 nodes (0 simplex iterations) in 0.02 seconds
Thread count was 1 (of 4 available processors)

Solution count 1: 9 

Optimal solution found (tolerance 1.00e-04)
Best objective 9.000000000000e+00, best bound 9.000000000000e+00, gap 0.0000%
Optimize a model with 117 rows, 69 columns and 223 nonzeros
Variable types: 0 continuous, 69 integer (69 binary)
Coefficient statistics:
  Matrix range     [1e+00, 3e+00]
  Objective range  [1e+00, 1e+00]
  Bounds range     [1e+00, 1e+00]
  RHS range        [1e+00, 1e+00]
Found heuristic solution: objective 13.0000000
Presolve removed 117 rows and 69 columns
Presolve time: 0.00s
Presolve: All rows and columns removed

Explored 0 nodes (0 simplex iterations) in 0.01 seconds
Thread count was 1 (of 4 available processors)

Solution count 1: 13 

Optimal solution found (tolerance 1.00e-04)
Best objective 1.300000000000e+01, best bound 1.300000000000e+01, gap 0.0000%
Optimize a model with 2862 rows, 1599 columns and 11604 nonzeros
Variable types: 0 continuous, 1599 integer (1599 binary)
Coefficient statistics:
  Matrix range     [1e+00, 1e+01]
  Objective range  [1e+00, 1e+00]
  Bounds range     [1e+00, 1e+00]
  RHS range        [1e+00, 1e+00]
Found heuristic solution: objective 231.0000000
Presolve removed 2239 rows and 965 columns
Presolve time: 0.03s
Presolved: 623 rows, 634 columns, 3000 nonzeros
Variable types: 0 continuous, 634 integer (634 binary)

Root relaxation: objective 1.574503e+02, 653 iterations, 0.01 seconds

    Nodes    |    Current Node    |     Objective Bounds      |     Work
 Expl Unexpl |  Obj  Depth IntInf | Incumbent    BestBd   Gap | It/Node Time

     0     0  157.45026    0  216  231.00000  157.45026  31.8%     -    0s
H    0     0                     190.0000000  157.45026  17.1%     -    0s
H    0     0                     188.0000000  157.45026  16.2%     -    0s
H    0     0                     184.0000000  157.45026  14.4%     -    0s
     0     0  167.05397    0  263  184.00000  167.05397  9.21%     -    0s
     0     0  168.25397    0  180  184.00000  168.25397  8.56%     -    0s
     0     0  168.32321    0  225  184.00000  168.32321  8.52%     -    0s
     0     0  168.33445    0  243  184.00000  168.33445  8.51%     -    0s
     0     0  169.66667    0   51  184.00000  169.66667  7.79%     -    0s
H    0     0                     174.0000000  169.66667  2.49%     -    0s
H    0     0                     172.0000000  169.66667  1.36%     -    0s
     0     0  170.00000    0   12  172.00000  170.00000  1.16%     -    0s
     0     0  170.00000    0    6  172.00000  170.00000  1.16%     -    0s
     0     0  170.00000    0    4  172.00000  170.00000  1.16%     -    0s
H    0     0                     170.0000000  170.00000  0.00%     -    0s

Cutting planes:
  Gomory: 2
  Cover: 48
  Implied bound: 1
  Clique: 97
  MIR: 4

Explored 1 nodes (1916 simplex iterations) in 0.38 seconds
Thread count was 4 (of 4 available processors)

Solution count 7: 170 172 174 ... 231

Optimal solution found (tolerance 1.00e-04)
Best objective 1.700000000000e+02, best bound 1.700000000000e+02, gap 0.0000%
Optimize a model with 71 rows, 46 columns and 128 nonzeros
Variable types: 0 continuous, 46 integer (46 binary)
Coefficient statistics:
  Matrix range     [1e+00, 3e+00]
  Objective range  [1e+00, 1e+00]
  Bounds range     [1e+00, 1e+00]
  RHS range        [1e+00, 1e+00]
Found heuristic solution: objective 9.0000000
Presolve removed 71 rows and 46 columns
Presolve time: 0.00s
Presolve: All rows and columns removed

Explored 0 nodes (0 simplex iterations) in 0.04 seconds
Thread count was 1 (of 4 available processors)

Solution count 1: 9 

Optimal solution found (tolerance 1.00e-04)
Best objective 9.000000000000e+00, best bound 9.000000000000e+00, gap 0.0000%
Optimize a model with 117 rows, 69 columns and 223 nonzeros
Variable types: 0 continuous, 69 integer (69 binary)
Coefficient statistics:
  Matrix range     [1e+00, 3e+00]
  Objective range  [1e+00, 1e+00]
  Bounds range     [1e+00, 1e+00]
  RHS range        [1e+00, 1e+00]
Found heuristic solution: objective 13.0000000
Presolve removed 117 rows and 69 columns
Presolve time: 0.00s
Presolve: All rows and columns removed

Explored 0 nodes (0 simplex iterations) in 0.01 seconds
Thread count was 1 (of 4 available processors)

Solution count 1: 13 

Optimal solution found (tolerance 1.00e-04)
Best objective 1.300000000000e+01, best bound 1.300000000000e+01, gap 0.0000%
Optimize a model with 2862 rows, 1599 columns and 11604 nonzeros
Variable types: 0 continuous, 1599 integer (1599 binary)
Coefficient statistics:
  Matrix range     [1e+00, 1e+01]
  Objective range  [1e+00, 1e+00]
  Bounds range     [1e+00, 1e+00]
  RHS range        [1e+00, 1e+00]
Found heuristic solution: objective 231.0000000
Presolve removed 2239 rows and 965 columns
Presolve time: 0.03s
Presolved: 623 rows, 634 columns, 3000 nonzeros
Variable types: 0 continuous, 634 integer (634 binary)

Root relaxation: objective 1.574503e+02, 653 iterations, 0.01 seconds

    Nodes    |    Current Node    |     Objective Bounds      |     Work
 Expl Unexpl |  Obj  Depth IntInf | Incumbent    BestBd   Gap | It/Node Time

     0     0  157.45026    0  216  231.00000  157.45026  31.8%     -    0s
H    0     0                     190.0000000  157.45026  17.1%     -    0s
H    0     0                     188.0000000  157.45026  16.2%     -    0s
H    0     0                     184.0000000  157.45026  14.4%     -    0s
     0     0  167.05397    0  263  184.00000  167.05397  9.21%     -    0s
     0     0  168.25397    0  180  184.00000  168.25397  8.56%     -    0s
     0     0  168.32321    0  225  184.00000  168.32321  8.52%     -    0s
     0     0  168.33445    0  243  184.00000  168.33445  8.51%     -    0s
     0     0  169.66667    0   51  184.00000  169.66667  7.79%     -    0s
H    0     0                     174.0000000  169.66667  2.49%     -    0s
H    0     0                     172.0000000  169.66667  1.36%     -    0s
     0     0  170.00000    0   12  172.00000  170.00000  1.16%     -    0s
     0     0  170.00000    0    6  172.00000  170.00000  1.16%     -    0s
     0     0  170.00000    0    4  172.00000  170.00000  1.16%     -    0s
H    0     0                     170.0000000  170.00000  0.00%     -    0s

Cutting planes:
  Gomory: 2
  Cover: 48
  Implied bound: 1
  Clique: 97
  MIR: 4

Explored 1 nodes (1916 simplex iterations) in 0.35 seconds
Thread count was 4 (of 4 available processors)

Solution count 7: 170 172 174 ... 231

Optimal solution found (tolerance 1.00e-04)
Best objective 1.700000000000e+02, best bound 1.700000000000e+02, gap 0.0000%
Optimize a model with 23 rows, 23 columns and 50 nonzeros
Variable types: 0 continuous, 23 integer (23 binary)
Coefficient statistics:
  Matrix range     [1e+00, 2e+00]
  Objective range  [1e+00, 1e+00]
  Bounds range     [1e+00, 1e+00]
  RHS range        [1e+00, 1e+00]
Found heuristic solution: objective 7.0000000
Presolve removed 12 rows and 12 columns
Presolve time: 0.00s
Presolved: 11 rows, 11 columns, 26 nonzeros
Found heuristic solution: objective 5.0000000
Variable types: 0 continuous, 11 integer (11 binary)

Root relaxation: objective 4.000000e+00, 7 iterations, 0.00 seconds

    Nodes    |    Current Node    |     Objective Bounds      |     Work
 Expl Unexpl |  Obj  Depth IntInf | Incumbent    BestBd   Gap | It/Node Time

*    0     0               0       4.0000000    4.00000  0.00%     -    0s

Explored 0 nodes (10 simplex iterations) in 0.03 seconds
Thread count was 4 (of 4 available processors)

Solution count 3: 4 5 6 

Optimal solution found (tolerance 1.00e-04)
Best objective 4.000000000000e+00, best bound 4.000000000000e+00, gap 0.0000%
